*HEADING
Frictionless block compression, nu=0, N/mm
*NODE
1, 0, 0, 0
2, 1, 0, 0
3, 1, 1, 0
4, 0, 1, 0
5, 0, 0, 1
6, 1, 0, 1
7, 1, 1, 1
8, 0, 1, 1
9, 0, 0, 1
10, 1, 0, 1
11, 1, 1, 1
12, 0, 1, 1
13, 0, 0, 2
14, 1, 0, 2
15, 1, 1, 2
16, 0, 1, 2
*ELEMENT, TYPE=C3D8R, ELSET=BODY
1, 1,2,3,4,5,6,7,8
2, 9,10,11,12,13,14,15,16
*NSET, NSET=ALLNODES, GENERATE
1,16,1
*NSET, NSET=BASE
1,2,3,4
*NSET, NSET=TOP
13,14,15,16
*SOLID SECTION, ELSET=BODY, MATERIAL=SOLID
*MATERIAL, NAME=SOLID
*ELASTIC
1000, 0
*SURFACE, TYPE=ELEMENT, NAME=LOWER
1, S2
*SURFACE, TYPE=ELEMENT, NAME=UPPER
2, S1
*SURFACE INTERACTION, NAME=FRICTIONLESS
*SURFACE BEHAVIOR, PRESSURE-OVERCLOSURE=HARD
*CONTACT PAIR, INTERACTION=FRICTIONLESS, TYPE=SURFACE TO SURFACE, SMALL SLIDING
UPPER, LOWER
*BOUNDARY
ALLNODES, 1, 2
BASE, 3, 3
*STEP, NAME=Compression, NLGEOM=NO
*STATIC
0.1, 1, 1e-8, 0.1
*BOUNDARY
TOP, 3, 3, -0.02
*OUTPUT, FIELD
*NODE OUTPUT
U, RF
*ELEMENT OUTPUT
S, E
*CONTACT OUTPUT
CSTRESS, CDISP
*END STEP
