*HEADING
Two instances reuse node labels and carry different loads
*PART, NAME=ROD
*NODE
1, 0,0,0
2, 100,0,0
*ELEMENT, TYPE=T3D2, ELSET=BODY
1,1,2
*NSET, NSET=FIXED
1
*NSET, NSET=TIP
2
*SOLID SECTION, ELSET=BODY, MATERIAL=STEEL
10
*END PART
*ASSEMBLY, NAME=ASSEMBLY
*INSTANCE, NAME=ONE, PART=ROD
*END INSTANCE
*INSTANCE, NAME=TWO, PART=ROD
0,10,0
*END INSTANCE
*END ASSEMBLY
*MATERIAL, NAME=STEEL
*ELASTIC
210000,0.3
*BOUNDARY
ONE.FIXED,1,3
TWO.FIXED,1,3
ONE.TIP,2,3
TWO.TIP,2,3
*STEP, NAME=Load
*STATIC
*CLOAD
ONE.TIP,1,1000
TWO.TIP,1,2000
*OUTPUT, FIELD
*NODE OUTPUT
U, RF
*ELEMENT OUTPUT
S
*END STEP
