*HEADING
Cantilever beam reference: N, mm, s, tonne
*NODE
1, 0, 0, 0
2, 25, 0, 0
3, 50, 0, 0
4, 75, 0, 0
5, 100, 0, 0
6, 125, 0, 0
7, 150, 0, 0
8, 175, 0, 0
9, 200, 0, 0
10, 225, 0, 0
11, 250, 0, 0
12, 275, 0, 0
13, 300, 0, 0
14, 325, 0, 0
15, 350, 0, 0
16, 375, 0, 0
17, 400, 0, 0
18, 425, 0, 0
19, 450, 0, 0
20, 475, 0, 0
21, 500, 0, 0
22, 525, 0, 0
23, 550, 0, 0
24, 575, 0, 0
25, 600, 0, 0
26, 625, 0, 0
27, 650, 0, 0
28, 675, 0, 0
29, 700, 0, 0
30, 725, 0, 0
31, 750, 0, 0
32, 775, 0, 0
33, 800, 0, 0
34, 825, 0, 0
35, 850, 0, 0
36, 875, 0, 0
37, 900, 0, 0
38, 925, 0, 0
39, 950, 0, 0
40, 975, 0, 0
41, 1000, 0, 0
*ELEMENT, TYPE=B31, ELSET=BODY
1, 1, 2
2, 2, 3
3, 3, 4
4, 4, 5
5, 5, 6
6, 6, 7
7, 7, 8
8, 8, 9
9, 9, 10
10, 10, 11
11, 11, 12
12, 12, 13
13, 13, 14
14, 14, 15
15, 15, 16
16, 16, 17
17, 17, 18
18, 18, 19
19, 19, 20
20, 20, 21
21, 21, 22
22, 22, 23
23, 23, 24
24, 24, 25
25, 25, 26
26, 26, 27
27, 27, 28
28, 28, 29
29, 29, 30
30, 30, 31
31, 31, 32
32, 32, 33
33, 33, 34
34, 34, 35
35, 35, 36
36, 36, 37
37, 37, 38
38, 38, 39
39, 39, 40
40, 40, 41
*NSET, NSET=FIXED
1
*NSET, NSET=TIP
41
*BEAM SECTION, SECTION=RECT, ELSET=BODY, MATERIAL=STEEL
10, 10
0, 0, -1
*MATERIAL, NAME=STEEL
*ELASTIC
210000, 0.3
*DENSITY
7.85e-9
*BOUNDARY
FIXED, 1, 6
*STEP, NAME=Modes
*FREQUENCY, EIGENSOLVER=LANCZOS
3
*OUTPUT, FIELD
*NODE OUTPUT
U
*END STEP
